c Output_time 26.03.2020 18:13:16_+0100 1585242796049802603
c ** Program information **
c program_name                          "QBRG_debug"
c version                               "0.3.20"
c date                                  "25.3.2020"
c gid_id                                "673970833836058123f633335630c185360d632e"
c author                                "Oliver Kullmann"
c url                                   "https://github.com/OKullmann/oklibrary/blob/master/Satisfiability/Transformers/Generators/Random/QBRG.cpp"
c ** Machine information **
c machine_name                          "chyna-Lenovo-G50-70"
c bogomips                              3791.08
c ** Compilation information **
c compiler_version                      "g++ 7.5.0"
c compilation_date                      "Mar_26_2020 11:16:30"
c compilation_options                   "--std=c++17 -pedantic -fmax-errors=5 -Wall -Wextra -g -D_GLIBCXX_DEBUG"
c NDEBUG                                0
c OPTIMIZE                              0
c ** Parameters **
c command-line                          "./QBRG_debug" "e40 a40 40" "340*1,1|2-2,1|3-3,1" "" "1,t" ""
c output                                "QuBlRaGe_120_340_1585242795975524382.qdimacs"
c options                               "filtered,renamed"
c num_quantifier_blocks                 3
c  quantifier_blocks                    1:e1-40 2:a41-80 3:e81-120
c num_clause-blocks                     1
c  clause-blocks                        340 * {1-40,1,1/2} | {41-80,1,1/2} | {81-120,1,1/2}
c num_e-seeds                           30+2=32
c  e-seeds                              1 0 1 0 4 120 2 40 1 40 0 40 1 340 3 1 1 1 1 2 2 2 1 1 2 3 3 1 1 2 1 1585242795975523764
p cnf 120 340
e 1 2 3 4 5 6 7 8 9 10 11 12 13 14 15 16 17 18 19 20 21 22 23 24 25 26 27 28 29 30 31 32 33 34 35 36 37 38 39 40 0
a 41 42 43 44 45 46 47 48 49 50 51 52 53 54 55 56 57 58 59 60 61 62 63 64 65 66 67 68 69 70 71 72 73 74 75 76 77 78 79 80 0
e 81 82 83 84 85 86 87 88 89 90 91 92 93 94 95 96 97 98 99 100 101 102 103 104 105 106 107 108 109 110 111 112 113 114 115 116 117 118 119 120 0
26 43 -81 0
35 -79 -81 0
-8 79 -81 0
-28 -42 81 0
-22 -48 81 0
-14 55 81 0
39 -58 81 0
36 -63 81 0
-23 74 81 0
-18 -59 -82 0
-26 74 -82 0
-3 41 82 0
-11 44 82 0
23 45 82 0
-8 -48 82 0
4 -60 82 0
-7 66 82 0
-22 68 82 0
35 -69 82 0
-9 53 -83 0
-12 54 -83 0
-15 -66 -83 0
-11 76 -83 0
36 77 -83 0
-18 45 83 0
-24 -50 83 0
38 -53 83 0
-31 -54 83 0
34 62 83 0
3 69 83 0
-21 79 83 0
-6 -50 -84 0
-37 -58 -84 0
-7 -62 -84 0
17 -45 84 0
23 -46 84 0
16 -54 84 0
-13 66 84 0
9 -72 84 0
32 -44 -85 0
3 67 -85 0
26 -73 -85 0
15 77 -85 0
-23 -43 85 0
-6 -70 85 0
30 -75 85 0
-32 75 85 0
-36 50 -86 0
-19 65 -86 0
37 44 86 0
28 56 86 0
-2 48 -87 0
-16 -51 87 0
15 51 87 0
-38 52 87 0
-12 -58 87 0
6 67 87 0
-40 -41 -88 0
33 56 -88 0
29 67 -88 0
-15 -46 88 0
35 -49 88 0
29 -56 88 0
-34 -58 88 0
17 -61 88 0
-14 66 88 0
-38 74 88 0
26 -51 -89 0
-26 51 -89 0
-7 76 -89 0
-35 77 -89 0
35 -80 -89 0
-24 41 89 0
-35 -50 89 0
-34 50 89 0
-13 -54 89 0
40 56 89 0
-25 71 89 0
-23 -57 -90 0
20 -62 -90 0
-21 50 90 0
-15 -58 90 0
-34 60 90 0
-9 49 -91 0
26 59 -91 0
24 66 -91 0
-40 69 -91 0
33 74 -91 0
38 -43 91 0
-1 -44 91 0
11 48 91 0
17 63 91 0
-19 68 91 0
11 74 91 0
12 -48 -92 0
11 52 -92 0
12 63 -92 0
-24 72 -92 0
24 78 -92 0
-7 -41 92 0
36 -50 92 0
20 59 92 0
28 -60 92 0
16 -74 92 0
-14 -76 92 0
-9 -79 92 0
28 -42 -93 0
-16 -43 -93 0
-19 49 -93 0
-38 -55 -93 0
-32 67 -93 0
25 68 -93 0
-32 44 93 0
-5 49 93 0
-12 -60 93 0
-26 -67 93 0
31 -71 93 0
9 72 93 0
35 73 93 0
-34 67 -94 0
33 77 -94 0
30 77 -95 0
12 80 -95 0
-2 44 95 0
-26 -62 95 0
28 73 95 0
-35 -74 95 0
-34 -78 95 0
23 79 95 0
23 45 -96 0
-34 53 -96 0
8 67 -96 0
35 -69 -96 0
25 -47 96 0
24 -48 96 0
1 -44 -97 0
36 -54 -97 0
14 54 -97 0
-3 60 -97 0
-16 -61 -97 0
-28 62 -97 0
21 70 -97 0
-34 -55 97 0
-2 -74 97 0
33 -42 -98 0
15 46 -98 0
-35 57 -98 0
15 78 -98 0
2 -45 98 0
28 55 98 0
-16 -57 98 0
18 71 98 0
28 45 -99 0
12 46 -99 0
-33 -65 -99 0
-39 73 -99 0
35 74 -99 0
6 -42 99 0
-18 60 99 0
-37 -64 99 0
-26 73 99 0
32 45 -100 0
10 -80 -100 0
-34 -56 100 0
37 68 100 0
-33 -73 100 0
14 -77 100 0
9 -42 -101 0
-2 69 -101 0
31 -50 101 0
32 -51 101 0
-4 -58 101 0
-28 -63 101 0
-39 63 101 0
23 80 101 0
5 44 -102 0
20 -69 -102 0
27 -70 -102 0
-31 -79 -102 0
36 80 -102 0
11 -58 102 0
9 58 102 0
-22 66 102 0
9 -45 -103 0
35 47 -103 0
-38 -61 -103 0
-23 50 103 0
-18 -79 103 0
-22 -43 -104 0
-5 47 -104 0
26 -48 -104 0
-1 -75 -104 0
32 51 104 0
34 59 104 0
8 65 104 0
-5 41 -105 0
-32 43 -105 0
9 54 -105 0
21 59 -105 0
-26 -79 -105 0
30 54 105 0
29 55 105 0
-39 -57 105 0
3 -73 105 0
40 -74 105 0
-27 80 105 0
-29 62 -106 0
-14 -78 -106 0
4 46 106 0
30 -69 106 0
-1 78 106 0
15 -47 -107 0
-26 -47 -107 0
-18 -51 -107 0
-33 -52 -107 0
36 -59 -107 0
-39 73 -107 0
1 -42 107 0
36 44 107 0
-23 -57 107 0
-37 -66 107 0
-26 66 107 0
40 45 -108 0
-29 -51 -108 0
-2 -60 -108 0
20 72 -108 0
-30 -77 -108 0
-24 43 108 0
-37 46 108 0
-19 -49 108 0
20 56 108 0
35 -60 108 0
26 64 108 0
-7 68 108 0
13 -54 -109 0
4 -69 -109 0
-7 70 -109 0
-12 75 -109 0
11 -76 -109 0
-4 76 -109 0
35 -77 -109 0
-28 -43 109 0
8 -72 109 0
39 -76 109 0
-4 51 -110 0
-23 53 -110 0
6 62 -110 0
-23 75 -110 0
15 42 110 0
-3 -62 110 0
-39 73 110 0
-33 75 110 0
-6 44 -111 0
40 -67 -111 0
-30 -68 -111 0
-34 -46 111 0
-9 49 111 0
-8 -52 111 0
-34 -68 111 0
20 75 111 0
15 -57 -112 0
11 57 -112 0
-16 67 -112 0
-1 -71 -112 0
-7 -52 112 0
-9 52 112 0
-2 -59 112 0
29 61 112 0
26 -66 112 0
6 -75 112 0
20 -70 -113 0
-34 -43 113 0
5 -52 113 0
-8 -56 113 0
-16 -66 113 0
-3 44 -114 0
15 44 -114 0
13 48 -114 0
37 64 -114 0
-6 -44 114 0
-3 49 114 0
-5 -63 114 0
-8 71 114 0
-25 -74 114 0
12 43 -115 0
29 45 -115 0
-16 -48 -115 0
-10 -58 -115 0
32 -62 -115 0
1 64 -115 0
-29 -70 -115 0
-26 -48 115 0
8 50 115 0
-36 -59 115 0
-37 -62 115 0
6 -68 115 0
-27 69 115 0
26 53 -116 0
-2 -72 -116 0
5 47 116 0
17 63 116 0
-28 64 116 0
5 -73 116 0
20 -78 116 0
-27 -46 -117 0
32 -47 -117 0
34 -55 -117 0
35 62 -117 0
38 -79 -117 0
26 -65 117 0
-14 -67 117 0
-40 -45 -118 0
7 45 -118 0
-24 -47 -118 0
-19 65 -118 0
-7 74 -118 0
34 77 -118 0
-12 -45 118 0
32 56 118 0
14 -62 118 0
-5 -65 118 0
-8 65 118 0
33 -66 118 0
32 69 118 0
-25 -77 118 0
-24 41 -119 0
-8 55 -119 0
35 -57 -119 0
-10 -63 -119 0
37 -53 119 0
-25 -55 119 0
-11 -76 119 0
21 -55 -120 0
1 55 -120 0
-7 -60 -120 0
-1 -71 -120 0
5 -54 120 0
7 67 120 0
-16 -74 120 0
34 -75 120 0
